10J3M/DAT/10J3MNTR-18.dat
10 3
21.7198 35.543
23.5787 13.7286
16.4717 19.2137
23.4189 17.0026
23.9061 40.3767
28.9039 8.2027
33.183 33.6023
18.1164 4.9671
23.6584 31.9107
29.4455 6.5502
52.7744