10J3M/SOL/10J3MNTR-18.sol
solution status: optimal solution found
objective value:                     70.3067498189048
x#1#1                              0.0260313524398506 	(obj:0)
x#1#2                                0.26979171389842 	(obj:0)
x#1#3                               0.355368448165288 	(obj:0)
x#2#1                                               1 	(obj:0)
x#3#2                                               1 	(obj:0)
x#4#2                                               1 	(obj:0)
x#6#1                               0.150414727722768 	(obj:0)
x#6#2                               0.849585272277232 	(obj:0)
x#7#3                                               1 	(obj:0)
x#8#1                                               1 	(obj:0)
x#9#1                                               1 	(obj:0)
x#10#1                            0.00136801214296383 	(obj:0)
x#10#3                              0.998631987857036 	(obj:0)
z                                    70.3067498189048 	(obj:1)
